117
0 98 73 36 70 92 63 39 58 74 
81 24 99 28 19 34 33 115 37 38 
15 89 16 57 29 40 85 13 67 47 
6 53 100 5 42 87 49 66 68 21 
23 75 32 60 104 108 14 7 26 105 
94 82 69 25 44 30 59 78 54 83 
46 101 48 109 64 35 45 17 71 110 
107 9 111 95 52 51 113 79 112 86 
27 55 106 8 50 62 84 1 97 2 
77 43 12 3 31 103 61 11 41 22 
93 65 91 20 80 114 102 88 116 10 
18 4 76 72 90 56 96 
